%nproc=8
%mem=2Gb
%chk=/tmp/zli/scr/14460.chk
# PM3MM sp

test

0 1
 C    29.12100  15.72700  -1.18200
 C    27.84300  15.15900  -1.05300
 C    27.28600  15.08300   0.21700
 Cl   25.70100  14.38900   0.43200
 C    27.91500  15.57800   1.36600
 C    29.19200  16.15000   1.22400
 C    29.76300  16.23000  -0.04000
 N    31.02300  16.81000  -0.04600
 C    31.53300  17.87200   0.63300
 C    30.80600  18.82200   1.60300
 N    32.81500  18.03700   0.29900
 N    33.15100  17.11200  -0.52600
 C    32.05800  16.34900  -0.75800
 C    31.95600  15.21500  -1.73000
 N    30.97900  15.69100  -2.74600
 C    29.65100  15.77700  -2.50900
 C    28.85900  16.26400  -3.61400
 C    27.69200  16.99100  -3.39800
 C    26.95800  17.53300  -4.45500
 C    27.34300  17.32800  -5.77700
 C    28.49100  16.59300  -5.99600
 C    29.22700  16.06600  -4.93900
 H    27.32200  14.79700  -1.92700
 H    27.41900  15.51400   2.32300
 H    29.71700  16.52100   2.09200
 H    31.50800  19.56900   1.97500
 H    29.98900  19.32000   1.08100
 H    30.40600  18.25100   2.44100
 H    31.55100  14.34000  -1.22200
 H    32.92400  15.05900  -2.20600
 H    27.33200  17.14800  -2.39200
 H    26.07600  18.12200  -4.25300
 H    26.75100  17.73800  -6.58200
 H    28.83500  16.41700  -7.00400
 H    30.10800  15.48800  -5.17400

--link1--
%nproc=8
%mem=2Gb
%chk=/tmp/zli/scr/14460.chk
# HF/gen SCF=tight Pop=(MK,ReadRadii) iop(6/33=2,6/41=10,6/42=17,6/50=1) Geom=AllCheck

-C -H -O -N -P -S -F -Cl -Br 0
6-31G*
****
-I     0
S   5   1.00
 444750.0                    0.00089
  66127.00                   0.00694
  14815.00                   0.03609
   4144.900                  0.13568
   1361.200                  0.33878
S   2   1.00
    508.4400                 0.43659
    209.5900                 0.18375
S   1   1.00
     81.959                  1.00000
S   1   1.00
     36.805                  1.00000
S   1   1.00
     13.495                  1.00000
S   1   1.00
      6.8859                 1.00000
S   1   1.00
      2.5520                 1.00000
S   1   1.00
      1.2088                 1.00000
S   1   1.00
      0.2734                 1.00000
S   1   1.00
      0.1009                 1.00000
P   4   1.00
   2953.600                  0.01221
    712.6100                 0.08587
    236.7100                 0.29493
     92.63100                0.47849
P   1   1.00
     39.73200                1.00000
P   1   1.00
     17.27300                1.000000
P   1   1.00
      7.957000               1.000000
P   1   1.00
      3.152900               1.000000
P   1   1.00
      1.332800               1.000000
P   1   1.00
      0.494700               1.000000
P   1   1.00
      0.216000               1.000000
P   1   1.00
      0.082930               1.000000
D   3   1.00
    261.9500                 0.03144
     76.73400                0.19028
     27.55100                0.47247
D   1   1.00
     10.60600                1.000000
D   1   1.00
      3.421700               1.000000
D   1   1.00
      1.137000               1.000000
D   1   1.00
      0.302000               1.000000
****

I 1.98

