%nproc=8
%mem=2Gb
%chk=/tmp/zli/scr/5305.chk
# PM3MM sp

test

1 1
 H   -10.66300 -17.32700 -37.97400
 C   -11.65100 -17.70400 -37.71000
 H   -11.59300 -18.77600 -37.52100
 H   -12.34300 -17.51700 -38.53100
 C   -12.18400 -17.01800 -36.45900
 O   -11.52100 -16.16000 -35.88200
 N   -13.39600 -17.39000 -36.05600
 C   -14.00300 -16.84300 -34.84900
 C   -13.94400 -17.87000 -33.74100
 O   -14.39200 -19.01300 -33.91400
 C   -15.51000 -16.55500 -35.18200
 C   -16.43000 -16.08500 -34.01200
 C   -17.94100 -16.37800 -34.20700
 C   -18.78900 -16.06200 -32.94400
 N   -20.23600 -16.38000 -33.08600
 C   -20.99600 -16.05000 -31.81200
 C   -20.88600 -15.57200 -34.19700
 H   -13.85100 -18.16900 -36.52200
 H   -13.53000 -15.91100 -34.52900
 H   -15.93000 -17.47800 -35.58700
 H   -15.56700 -15.83200 -35.99700
 H   -16.28000 -15.01400 -33.86600
 H   -16.12100 -16.53900 -33.07300
 H   -18.05700 -17.42900 -34.48000
 H   -18.29900 -15.79700 -35.05900
 H   -18.68700 -15.00600 -32.68900
 H   -18.39500 -16.62500 -32.09400
 H   -20.37800 -17.36400 -33.26800
 H   -22.05100 -16.29300 -31.94400
 H   -20.59100 -16.63300 -30.98500
 H   -20.89300 -14.98800 -31.59200
 H   -21.94100 -15.83400 -34.26800
 H   -20.78900 -14.50900 -33.97700
 H   -20.39200 -15.79300 -35.14400
 N   -13.39900 -17.44800 -32.60300
 H   -12.86300 -16.58600 -32.55600
 C   -13.33400 -18.29400 -31.41100
 H   -13.94000 -19.18700 -31.56500
 H   -12.30000 -18.58400 -31.22700
 H   -13.71400 -17.74200 -30.55200

--link1--
%nproc=8
%mem=2Gb
%chk=/tmp/zli/scr/5305.chk
# HF/gen SCF=tight Pop=(MK,ReadRadii) iop(6/33=2,6/41=10,6/42=17,6/50=1) Geom=AllCheck

-C -H -O -N -P -S -F -Cl -Br 0
6-31G*
****
-I     0
S   5   1.00
 444750.0                    0.00089
  66127.00                   0.00694
  14815.00                   0.03609
   4144.900                  0.13568
   1361.200                  0.33878
S   2   1.00
    508.4400                 0.43659
    209.5900                 0.18375
S   1   1.00
     81.959                  1.00000
S   1   1.00
     36.805                  1.00000
S   1   1.00
     13.495                  1.00000
S   1   1.00
      6.8859                 1.00000
S   1   1.00
      2.5520                 1.00000
S   1   1.00
      1.2088                 1.00000
S   1   1.00
      0.2734                 1.00000
S   1   1.00
      0.1009                 1.00000
P   4   1.00
   2953.600                  0.01221
    712.6100                 0.08587
    236.7100                 0.29493
     92.63100                0.47849
P   1   1.00
     39.73200                1.00000
P   1   1.00
     17.27300                1.000000
P   1   1.00
      7.957000               1.000000
P   1   1.00
      3.152900               1.000000
P   1   1.00
      1.332800               1.000000
P   1   1.00
      0.494700               1.000000
P   1   1.00
      0.216000               1.000000
P   1   1.00
      0.082930               1.000000
D   3   1.00
    261.9500                 0.03144
     76.73400                0.19028
     27.55100                0.47247
D   1   1.00
     10.60600                1.000000
D   1   1.00
      3.421700               1.000000
D   1   1.00
      1.137000               1.000000
D   1   1.00
      0.302000               1.000000
****

I 1.98

